boundary p p p
units metal
atom_style atomic
newton off
#read_data structure.data
variable a equal  3.89766561



lattice custom    1     &
        a1      $a      0.0     0.0     &
        a2      0.0     $a      0.0     &
        a3      0.0     0.0     $a      &
        basis   0.0     0.0     0.0     &
        basis   0.5     0.5     0.5     &
        basis   0.0     0.5     0.5     &
        basis   0.5     0.0     0.5     &
        basis   0.5     0.5     0.0


#region myreg block 0 $a 0 $a 0 $a
region myreg block 0 4 0 4 0 4
create_box 3 myreg
create_atoms 3 box &
basis 1 1 &
basis 2 2 &
basis 3 3 &
basis 4 3 &
basis 5 3


pair_style nequip
pair_coeff * * ./deployed100ptsrand.pth Sr Ti O


mass 1 87.62
mass 2 47.88
mass 3 16.00

neighbor        2.0 bin
neigh_modify    delay 0 every 10 check yes


compute myRDF all rdf 50 1 1 2 2 3 3 1 2 1 3 2 3
fix 1 all ave/time 100 1 100 c_myRDF[*] file tmp.rdf mode vector





thermo          1
thermo_style    custom time step temp pe etotal press vol
thermo_modify   norm no flush yes
thermo_modify format float "%.5f"

dump 1 all custom 1 dump.velocity id type x y z vx vy vz



velocity all create 15 12345
fix             ensemble_set all nvt temp 15 15 $(100*dt)


#write_data      waterinfo.data
#write_restart   waterinfo.restart

timestep        0.001
run             50000
